/*********************************************
 * OPL 12.8.0.0 Data
 * Author: juan.pablo.royo
 * Creation Date: 14/10/2019 at 11:06:38
 *********************************************/
 
nTasks=5;
nCPUs=3;
 
 rt=[261.27 560.89 310.51 105.80 344.7];
 rc=[505.67 503.68 701.78];
 